  2   0   0   0   0   0   0   0   0   0   0   0   0   0   0   0   0   0   0   0   0   0   0   0   0   0   0   0   0   0   0   0   0   0   0   0   0   0   0   0   0   0   0   0   0   0   0   0   0   0   0   0   0   0   0   0   0   0   0   0   0   0   0   0   0   0   0   0   0   0   0   0   0   0   0   0   0   0   0   0   0   0   0   0   0   0   0   0   0   0   0   0   0   0   0   0   0   0   0   0   0   0   0   0   0   0   0   0   0   0   0   0   0   0   0   0   0   0   0   0   0   0   0   0   0   0   0   0   0   0   0   0   0   0   0   0   0   0   0   0   0   0   0   0   0   0   0   0   0   0   0   0   0   0   0   0   0   0   0   0   0   0   0   0   0   0   0   0   0   0   0   0   0   0   0   0   0   0   0   0   0   0   0   0   0   0   0   0   0   0   0   0   0   0   0   0   0   0   0   0   0   0   0   0   0   0   0   0   0   0   0   0   0   0   0   0   0   0   0   0   0   0   0   0   0   0   0   0   0   0   0   0   0   0   0   0   0   0   0   0   0   0   0   0   0   0   0   0   0   0   0   0   0   0   0   0   0   0   0   0   0   0   0   0   0   0   0   0   0   0   0   0   0   0   0   0   0   0   0   0   0   0   0   0   0   0   0   0   0   0   0   0   0   0   0   0   0   0   0   0   0   0   0   0   0   0   0   0   0   0   0   0   0   0   0   0   0   0   0   0   0   0   0   0   0   0   0   0   0   0   0   0   0   0   0   0   0   0   0   0   0   0   0   0   0   0   0   0   0   0   0   0   0   0   0   0   0   0   0   0   0   0   0   0   0   0   0   0   0   0   0   0   0   0   0   0   0   0   0   0   0   0   0   0   0   0   0   0   0   0   0   0   0   0   0   0   0   0   0   0   0   0   0   0   0   0   0   0   0   0   0   0   0   0   0   0   0   0   0   0   0   0   0   0   0   0   0   0   0   0   0   0   0   0   0   0   0   0   0   0   0   0   0   0   0   0   0   0   0   0   0   0   0   0   0   0   0   0   0   0   0   0   0   0   0   0   0   0   0   0   0   0   0   0   0   0   0   0   0   0   0   0   0   0   0   0   0   0   0   0   0   0   0   0   0   0   0   0   0   0   0   0   0   0   0   0   0   0   0   0   0   0   0   0   0   0   0   0   0   0   0   0   0   0   0   0   0   0   0   0   0   0   0   0   0   0   0   0   0   0   0   0   0   0   0   0   0   0   0   0   0   0   0   0   0   0   0   0   0   0   0   0   0   0   0   0   0   0   0   0   0   0   0   0   0   0   0   0   0   0   0   0   0   0   0   0   0   0   0   0   0   0   0   0   0   0   0   0   0   0   0   0   0   0   0   0   0   0   0   0   0   0   0   0   0   0   0   0   0   0   0   0   0   0   0   0   0   0   0   0   0   0   0   0   0   0   0   0   0   0   0   0   0   0   0   0   0   0   0   0   0   0   0   0   0   0   0   0   0   0   0   0   0   0   0   0   0   0   0   0   0   0   0   0   0   0   0   0   0   0   0   0   0   0   0   0   0   0   0   0   0   0   0   0   0   0   0   0   0   0   0   0   0   0   0   0   0   0   0   0   0   0   0   0   0   0   0   0   0   0   0   0   0   0   0   0   0   0   0   0   0   0   0   0   0   0   0   0   0   0   0   0   0   0   0   0   0   0   0   0   0   0   0   0   0   0   0   0   0   0   0   0   0   0   0   0   0   0   0   0   0   0   0   0   0   0   0   0   0   0   0   0   0   0   0   0   0   0   0   0   0   0   0   0   0   0   0   0   0   0   0   0   0   0   0   0   0   0   0   0   0   0   0   0   0   0   0   0   0   0   0   0   0   0   0   0   0   0   0   0   0   0   0   0   0   0   0   0   0   0   0   0   0   0   0   0   0   0   0   0   0   0   0   0   0   0   0   0   0   0   0   0   0   0   0   0   0   0   0   0   0   0   0   0   0   0   0   0   0   0   0   0   0   0   0   0   0   0   0   0   0   0   0   0   0   0   0   0   0   0   0   0   0   0   0   0   0   0   0   0   0   0   0   0   0   0   0   0   0   0   0   0   0   0   0   0   0   0   0   0   0   0   0   0   0   0   0   0   0   0   0   0   0   0   0   0   0   0   0   0   0   0   0   0   0   0   0   0   0   0   0   0   0   0   0   0   0   0   0   0   0   0   0   0   0   0   0   0   0   0   0   0   0   0   0   0   0   0   0   0   0   0   0   0   0   0   0   0   0   0 
REMAINING SPACE:      80
ACCUMULATED PRIORITY: 196
EXECUTION TIME:       0.000125900
QTY PRI VAL
[2]  98 210
[0]  96 206
[0]  92 200
[0]  95 211
[0]  95 212
[0]  98 222
[0]  89 202
[0] 100 229
[0]  88 204
[0]  86 201
[0]  94 220
[0]  98 232
[0]  93 222
[0]  90 215
[0]  85 204
[0] 100 240
[0]  84 202
[0]  93 224
[0]  86 208
[0]  87 211
[0]  91 223
[0]  83 206
[0]  93 232
[0]  86 217
[0]  86 217
[0]  99 251
[0]  92 234
[0]  99 253
[0]  85 218
[0]  88 227
[0]  89 234
[0]  95 250
[0]  88 232
[0]  92 243
[0]  84 222
[0]  77 208
[0]  88 238
[0]  76 207
[0]  96 262
[0]  93 254
[0]  89 244
[0]  98 270
[0]  95 262
[0]  84 232
[0]  87 241
[0]  83 230
[0]  98 272
[0]  88 247
[0]  85 241
[0]  79 224
[0]  79 224
[0]  82 233
[0]  89 253
[0]  83 236
[0]  85 242
[0]  91 260
[0]  98 280
[0]  87 250
[0]  75 218
[0]  89 259
[0]  96 281
[0]  89 261
[0]  95 279
[0]  74 218
[0]  85 251
[0]  88 262
[0]  92 274
[0]  94 282
[0]  82 246
[0]  67 201
[0]  68 205
[0]  85 259
[0]  89 272
[0]  68 208
[0]  91 279
[0]  66 203
[0]  81 250
[0]  93 289
[0]  82 258
[0]  99 312
[0]  79 249
[0]  90 284
[0] 100 316
[0]  81 257
[0]  77 245
[0]  72 231
[0]  95 307
[0]  84 272
[0]  88 285
[0] 100 328
[0]  91 299
[0]  96 316
[0]  66 218
[0]  97 321
[0] 100 331
[0]  70 232
[0]  64 213
[0]  75 251
[0]  85 285
[0]  91 306
[0]  88 297
[0]  87 295
[0]  69 234
[0]  71 241
[0]  96 326
[0]  62 213
[0]  79 272
[0]  90 310
[0]  64 221
[0]  75 259
[0]  64 222
[0]  99 344
[0]  92 320
[0]  87 303
[0]  76 265
[0]  84 293
[0]  99 346
[0]  86 301
[0]  89 312
[0]  63 221
[0]  94 330
[0]  94 332
[0]  62 219
[0]  71 251
[0]  80 283
[0]  80 286
[0]  88 315
[0]  67 240
[0]  96 344
[0]  90 323
[0]  89 320
[0]  94 341
[0]  85 309
[0]  86 313
[0]  99 361
[0]  62 227
[0]  71 260
[0]  95 348
[0] 100 367
[0]  62 228
[0]  58 214
[0]  65 240
[0]  99 366
[0]  65 241
[0] 100 371
[0]  76 282
[0]  67 249
[0]  72 268
[0]  84 314
[0]  77 289
[0] 100 376
[0]  67 252
[0]  78 294
[0]  63 238
[0]  84 318
[0]  57 216
[0]  72 273
[0]  92 349
[0]  65 247
[0]  75 285
[0]  70 266
[0]  89 339
[0]  69 263
[0]  85 324
[0]  54 206
[0]  55 210
[0]  72 276
[0]  70 269
[0]  85 327
[0]  97 374
[0]  79 305
[0]  78 302
[0]  97 376
[0]  82 318
[0]  90 350
[0]  54 211
[0]  65 254
[0]  86 337
[0]  76 298
[0]  79 310
[0]  82 322
[0]  69 271
[0]  79 313
[0]  67 266
[0]  79 314
[0]  59 235
[0]  81 323
[0] 100 399
[0]  52 208
[0]  80 320
[0]  96 384
[0]  84 337
[0]  83 333
[0]  60 241
[0]  98 394
[0]  88 354
[0]  85 343
[0]  55 222
[0]  82 331
[0]  50 203
[0]  79 321
[0]  62 252
[0]  62 252
[0]  79 322
[0]  61 249
[0]  58 237
[0]  92 376
[0]  78 319
[0]  97 398
[0]  65 267
[0]  65 267
[0]  95 391
[0]  83 342
[0]  49 202
[0]  93 384
[0]  77 318
[0]  61 253
[0]  96 399
[0]  99 412
[0]  86 359
[0]  80 336
[0]  78 328
[0]  81 341
[0]  83 350
[0]  49 207
[0]  48 203
[0]  96 406
[0]  56 237
[0]  51 216
[0]  50 212
[0]  83 352
[0]  99 420
[0]  81 344
[0]  73 311
[0]  75 320
[0]  76 325
[0]  57 244
[0]  71 304
[0]  99 424
[0]  73 314
[0]  81 349
[0]  48 207
[0]  79 341
[0]  47 203
[0]  92 399
[0]  99 430
[0]  81 352
[0]  74 322
[0]  99 431
[0]  87 379
[0]  97 423
[0]  65 284
[0]  59 258
[0]  55 241
[0]  98 430
[0]  73 321
[0]  50 220
[0]  47 207
[0]  85 375
[0]  57 252
[0]  59 261
[0]  87 385
[0]  61 270
[0]  86 381
[0]  73 324
[0]  52 231
[0]  97 431
[0]  90 400
[0]  97 433
[0]  72 322
[0]  61 273
[0]  72 323
[0]  84 378
[0]  56 253
[0]  80 362
[0]  66 299
[0]  96 435
[0]  90 408
[0]  66 300
[0]  77 350
[0]  99 451
[0]  72 328
[0]  99 451
[0]  50 228
[0]  48 219
[0]  83 380
[0]  77 353
[0]  87 399
[0]  80 367
[0]  88 404
[0]  58 267
[0]  97 447
[0]  93 429
[0]  86 397
[0]  83 384
[0]  63 292
[0]  98 455
[0]  56 260
[0]  70 325
[0]  71 330
[0]  78 363
[0]  99 461
[0] 100 466
[0]  45 210
[0]  82 385
[0]  98 462
[0]  67 316
[0]  85 401
[0]  91 430
[0]  96 454
[0]  97 459
[0]  98 465
[0]  69 328
[0]  88 419
[0]  92 439
[0]  72 344
[0]  82 392
[0]  98 469
[0]  61 292
[0]  65 313
[0]  66 318
[0]  80 387
[0]  99 480
[0]  80 388
[0]  67 325
[0] 100 486
[0] 100 487
[0]  56 273
[0]  56 273
[0]  64 312
[0] 100 488
[0]  63 308
[0]  91 445
[0]  87 426
[0]  91 446
[0]  54 265
[0]  96 472
[0]  73 359
[0]  96 473
[0]  80 395
[0]  69 341
[0]  91 450
[0]  76 377
[0]  52 258
[0]  81 402
[0]  45 224
[0]  99 493
[0]  63 314
[0]  94 469
[0]  69 345
[0]  42 210
[0]  71 356
[0]  48 241
[0]  88 442
[0]  85 427
[0]  64 322
[0]  78 393
[0]  86 434
[0]  60 303
[0]  91 460
[0]  69 349
[0]  95 481
[0]  95 481
[0]  91 461
[0]  50 254
[0]  87 442
[0]  64 326
[0]  59 301
[0]  96 491
[0]  59 302
[0]  84 431
[0]  68 349
[0]  43 221
[0]  86 442
[0]  78 401
[0]  70 360
[0]  95 489
[0]  47 242
[0]  79 407
[0]  78 402
[0]  76 393
[0]  61 316
[0]  60 311
[0]  49 254
[0]  74 384
[0]  58 301
[0]  81 421
[0]  44 229
[0]  88 458
[0]  88 458
[0]  48 250
[0]  67 349
[0]  95 495
[0]  73 381
[0]  84 440
[0]  84 442
[0]  63 332
[0]  77 406
[0]  87 460
[0]  45 238
[0]  73 387
[0]  91 484
[0]  75 399
[0]  71 378
[0]  60 320
[0]  78 416
[0]  68 363
[0]  73 390
[0]  73 390
[0]  90 481
[0]  87 465
[0]  58 310
[0]  78 417
[0]  83 445
[0]  90 483
[0]  57 306
[0]  54 290
[0]  81 436
[0]  47 253
[0]  78 421
[0]  66 358
[0]  61 331
[0]  62 337
[0]  63 343
[0]  80 437
[0]  84 459
[0]  64 350
[0]  54 296
[0]  89 489
[0]  80 441
[0]  53 293
[0]  36 200
[0]  69 384
[0]  44 245
[0]  71 396
[0]  53 296
[0]  72 403
[0]  87 487
[0]  61 342
[0]  77 433
[0]  43 242
[0]  63 355
[0]  80 451
[0]  36 203
[0]  62 350
[0]  58 329
[0]  37 210
[0]  62 352
[0]  47 267
[0]  66 375
[0]  86 490
[0]  58 331
[0]  55 314
[0]  80 457
[0]  35 200
[0]  81 463
[0]  38 219
[0]  80 462
[0]  52 301
[0]  48 278
[0]  84 488
[0]  71 414
[0]  70 409
[0]  39 228
[0]  39 229
[0]  42 247
[0]  79 465
[0]  55 324
[0]  39 230
[0]  53 313
[0]  83 493
[0]  36 214
[0]  69 411
[0]  75 447
[0]  62 370
[0]  81 484
[0]  43 257
[0]  53 317
[0]  80 479
[0]  63 378
[0]  52 312
[0]  34 204
[0]  41 246
[0]  77 463
[0]  55 331
[0]  52 313
[0]  69 416
[0]  46 278
[0]  71 430
[0]  66 400
[0]  44 267
[0]  71 431
[0]  68 414
[0]  67 408
[0]  79 482
[0]  59 360
[0]  41 251
[0]  74 454
[0]  43 264
[0]  79 486
[0]  71 437
[0]  50 308
[0]  43 265
[0]  52 321
[0]  73 452
[0]  75 465
[0]  79 490
[0]  50 311
[0]  63 392
[0]  80 498
[0]  65 405
[0]  41 256
[0]  78 488
[0]  39 245
[0]  73 459
[0]  67 422
[0]  63 398
[0]  49 310
[0]  41 260
[0]  53 337
[0]  69 440
[0]  34 217
[0]  60 383
[0]  48 307
[0]  38 244
[0]  33 212
[0]  34 219
[0]  60 388
[0]  72 466
[0]  63 408
[0]  45 292
[0]  69 448
[0]  42 273
[0]  37 241
[0]  70 456
[0]  54 352
[0]  70 457
[0]  64 418
[0]  65 425
[0]  41 269
[0]  60 394
[0]  36 237
[0]  69 455
[0]  35 231
[0]  71 469
[0]  57 377
[0]  65 430
[0]  46 305
[0]  56 372
[0]  37 246
[0]  50 333
[0]  75 500
[0]  69 460
[0]  48 321
[0]  71 475
[0]  36 241
[0]  40 268
[0]  38 255
[0]  50 336
[0]  68 457
[0]  68 457
[0]  45 303
[0]  72 485
[0]  46 310
[0]  46 310
[0]  57 385
[0]  48 325
[0]  65 441
[0]  47 319
[0]  48 327
[0]  43 293
[0]  49 334
[0]  67 458
[0]  57 390
[0]  45 309
[0]  30 207
[0]  68 471
[0]  41 284
[0]  29 201
[0]  44 305
[0]  33 229
[0]  52 361
[0]  54 375
[0]  41 285
[0]  64 445
[0]  69 480
[0]  61 425
[0]  69 481
[0]  60 419
[0]  70 490
[0]  51 357
[0]  57 400
[0]  37 260
[0]  35 246
[0]  48 338
[0]  35 247
[0]  49 346
[0]  63 445
[0]  46 325
[0]  56 396
[0]  57 404
[0]  31 220
[0]  68 483
[0]  50 356
[0]  47 335
[0]  30 214
[0]  33 236
[0]  56 401
[0]  52 373
[0]  32 230
[0]  50 360
[0]  41 297
[0]  32 232
[0]  38 276
[0]  59 429
[0]  31 226
[0]  58 424
[0]  28 205
[0]  52 381
[0]  55 403
[0]  57 418
[0]  62 455
[0]  38 279
[0]  54 397
[0]  56 412
[0]  51 376
[0]  40 295
[0]  51 377
[0]  48 355
[0]  49 363
[0]  49 363
[0]  44 326
[0]  63 468
[0]  48 357
[0]  52 387
[0]  38 284
[0]  55 414
[0]  56 422
[0]  56 423
[0]  42 318
[0]  57 433
[0]  48 366
[0]  54 412
[0]  50 382
[0]  37 283
[0]  28 215
[0]  50 384
[0]  41 315
[0]  32 246
[0]  36 278
[0]  56 433
[0]  34 263
[0]  56 436
[0]  33 257
[0]  64 499
[0]  29 227
[0]  56 440
[0]  54 426
[0]  42 332
[0]  54 428
[0]  50 399
[0]  51 407
[0]  60 479
[0]  26 208
[0]  53 425
[0]  50 401
[0]  36 289
[0]  50 403
[0]  48 387
[0]  47 379
[0]  32 260
[0]  55 448
[0]  34 277
[0]  46 375
[0]  47 385
[0]  52 426
[0]  41 336
[0]  30 246
[0]  55 456
[0]  34 282
[0]  50 417
[0]  46 384
[0]  59 493
[0]  43 360
[0]  49 412
[0]  36 303
[0]  28 236
[0]  25 212
[0]  56 478
[0]  39 333
[0]  58 496
[0]  58 496
[0]  35 301
[0]  55 474
[0]  34 294
[0]  43 372
[0]  55 477
[0]  55 479
[0]  56 489
[0]  47 412
[0]  40 352
[0]  42 372
[0]  25 223
[0]  41 370
[0]  39 353
[0]  35 317
[0]  25 229
[0]  22 202
[0]  29 267
[0]  48 442
[0]  45 417
[0]  51 473
[0]  48 448
[0]  45 420
[0]  43 403
[0]  51 478
[0]  50 470
[0]  49 462
[0]  41 387
[0]  48 454
[0]  52 493
[0]  33 313
[0]  44 418
[0]  44 419
[0]  47 448
[0]  44 421
[0]  45 431
[0]  39 374
[0]  43 413
[0]  44 423
[0]  42 404
[0]  33 318
[0]  21 203
[0]  38 368
[0]  47 456
[0]  41 399
[0]  29 286
[0]  49 484
[0]  43 425
[0]  26 257
[0]  36 357
[0]  49 489
[0]  28 280
[0]  42 420
[0]  44 441
[0]  39 391
[0]  36 361
[0]  46 462
[0]  29 292
[0]  31 313
[0]  29 293
[0]  35 356
[0]  38 388
[0]  29 298
[0]  32 329
[0]  35 360
[0]  30 310
[0]  23 238
[0]  36 374
[0]  28 292
[0]  44 459
[0]  32 335
[0]  34 357
[0]  45 474
[0]  30 317
[0]  43 456
[0]  43 456
[0]  29 308
[0]  38 404
[0]  45 479
[0]  24 256
[0]  21 225
[0]  33 355
[0]  42 453
[0]  20 217
[0]  36 391
[0]  37 402
[0]  38 413
[0]  23 250
[0]  43 469
[0]  34 375
[0]  34 375
[0]  42 467
[0]  40 447
[0]  24 270
[0]  44 497
[0]  32 362
[0]  27 306
[0]  41 465
[0]  42 478
[0]  26 296
[0]  35 401
[0]  37 424
[0]  26 301
[0]  27 315
[0]  26 304
[0]  41 480
[0]  31 363
[0]  41 483
[0]  32 378
[0]  39 462
[0]  27 320
[0]  42 498
[0]  42 499
[0]  39 466
[0]  33 395
[0]  39 469
[0]  26 314
[0]  18 218
[0]  39 474
[0]  31 377
[0]  27 330
[0]  31 379
[0]  40 490
[0]  34 417
[0]  36 443
[0]  19 235
[0]  38 473
[0]  24 300
[0]  35 438
[0]  38 476
[0]  36 451
[0]  18 226
[0]  36 453
[0]  28 353
[0]  23 294
[0]  29 372
[0]  16 206
[0]  23 297
[0]  18 234
[0]  30 390
[0]  38 499
[0]  38 500
[0]  31 408
[0]  36 475
[0]  21 278
[0]  32 424
[0]  32 425
[0]  32 425
[0]  27 361
[0]  31 415
[0]  30 402
[0]  31 420
[0]  31 420
[0]  26 355
[0]  17 233
[0]  22 302
[0]  15 206
[0]  33 454
[0]  36 496
[0]  28 386
[0]  17 236
[0]  31 432
[0]  26 364
[0]  32 448
[0]  28 393
[0]  23 324
[0]  29 409
[0]  32 452
[0]  16 226
[0]  20 283
[0]  34 482
[0]  17 242
[0]  35 500
[0]  30 429
[0]  17 244
[0]  27 388
[0]  20 288
[0]  33 477
[0]  27 391
[0]  28 407
[0]  20 291
[0]  26 379
[0]  29 424
[0]  31 454
[0]  29 431
[0]  26 391
[0]  21 317
[0]  19 288
[0]  13 201
[0]  25 388
[0]  27 420
[0]  29 456
[0]  13 205
[0]  17 271
[0]  14 225
[0]  18 291
[0]  23 373
[0]  25 410
[0]  26 428
[0]  21 346
[0]  15 248
[0]  21 348
[0]  27 448
[0]  25 420
[0]  29 489
[0]  29 492
[0]  18 306
[0]  23 392
[0]  20 341
[0]  24 414
[0]  21 364
[0]  22 382
[0]  27 469
[0]  21 365
[0]  23 401
[0]  25 442
[0]  17 301
[0]  22 390
[0]  16 284
[0]  21 373
[0]  25 446
[0]  25 447
[0]  21 381
[0]  24 437
[0]  27 494
[0]  20 366
[0]  19 348
[0]  18 333
[0]  24 445
[0]  25 464
[0]  25 465
[0]  13 243
[0]  17 319
[0]  25 471
[0]  12 227
[0]  14 267
[0]  12 233
[0]  22 429
[0]  12 235
[0]  14 276
[0]  18 362
[0]  12 242
[0]  19 387
[0]  18 369
[0]  24 499
[0]  20 417
[0]  21 442
[0]  16 337
[0]  15 320
[0]  21 448
[0]  22 480
[0]  21 460
[0]  13 287
[0]  22 495
[0]  20 450
[0]  12 271
[0]  15 341
[0]  19 439
[0]  15 347
[0]  11 260
[0]  14 332
[0]  19 457
[0]  15 363
[0]  13 316
[0]  16 389
[0]  19 465
[0]  15 372
[0]  13 327
[0]  18 455
[0]  19 485
[0]  16 413
[0]  18 474
[0]  16 422
[0]  15 396
[0]  18 477
[0]  11 293
[0]  13 360
[0]  12 339
[0]  12 339
[0]  11 318
[0]  12 347
[0]  17 495
[0]  13 396
[0]  15 459
[0]  12 380
[0]  12 383
[0]  14 454
[0]  15 496
[0]  13 431
[0]  13 435
[0]  11 369
[0]  10 338
[0]  14 490
[0]  12 420
[0]  13 460
[0]  12 426
[0]  10 366
[0]  12 456
[0]  10 396
[0]  12 476
[0]  12 481
[0]  12 488
[0]  11 452
[0]  11 465
[0]  11 466
[0]  11 474
[0]  11 475
[0]  10 454
[0]  10 490
